NAME: ftv33
TYPE: ATSP
COMMENT: Asymmetric TSP (Fischetti)
DIMENSION: 6
EDGE_WEIGHT_TYPE: EXPLICIT
EDGE_WEIGHT_FORMAT: FULL_MATRIX 
EDGE_WEIGHT_SECTION
   100000000	27	43	16	30	26	7	100000000	16	1	30	25	20	13	100000000	35	5	0	21	16	25	100000000	18	18	12	46	27	48	100000000	5	23	5	5	9	5	100000000
EOF
